p cnf 270 3108
-1 -235 0
-2 -236 0
-3 -237 0
-4 -238 0
-5 -239 0
-6 -240 0
-7 -241 0
-8 -242 0
-9 -243 0
-1 -172 0
-2 -173 0
-3 -174 0
-4 -175 0
-5 -176 0
-6 -177 0
-7 -178 0
-8 -179 0
-9 -180 0
-1 -118 0
-2 -119 0
-3 -120 0
-4 -121 0
-5 -122 0
-6 -123 0
-7 -124 0
-8 -125 0
-9 -126 0
-1 -46 0
-2 -47 0
-3 -48 0
-4 -49 0
-5 -50 0
-6 -51 0
-7 -52 0
-8 -53 0
-9 -54 0
-1 -100 0
-2 -101 0
-3 -102 0
-4 -103 0
-5 -104 0
-6 -105 0
-7 -106 0
-8 -107 0
-9 -108 0
-1 -109 0
-2 -110 0
-3 -111 0
-4 -112 0
-5 -113 0
-6 -114 0
-7 -115 0
-8 -116 0
-9 -117 0
-1 -73 0
-2 -74 0
-3 -75 0
-4 -76 0
-5 -77 0
-6 -78 0
-7 -79 0
-8 -80 0
-9 -81 0
-1 -244 0
-2 -245 0
-3 -246 0
-4 -247 0
-5 -248 0
-6 -249 0
-7 -250 0
-8 -251 0
-9 -252 0
-1 -136 0
-2 -137 0
-3 -138 0
-4 -139 0
-5 -140 0
-6 -141 0
-7 -142 0
-8 -143 0
-9 -144 0
-1 -154 0
-2 -155 0
-3 -156 0
-4 -157 0
-5 -158 0
-6 -159 0
-7 -160 0
-8 -161 0
-9 -162 0
-1 -217 0
-2 -218 0
-3 -219 0
-4 -220 0
-5 -221 0
-6 -222 0
-7 -223 0
-8 -224 0
-9 -225 0
-1 -19 0
-2 -20 0
-3 -21 0
-4 -22 0
-5 -23 0
-6 -24 0
-7 -25 0
-8 -26 0
-9 -27 0
-1 -28 0
-2 -29 0
-3 -30 0
-4 -31 0
-5 -32 0
-6 -33 0
-7 -34 0
-8 -35 0
-9 -36 0
-1 -226 0
-2 -227 0
-3 -228 0
-4 -229 0
-5 -230 0
-6 -231 0
-7 -232 0
-8 -233 0
-9 -234 0
-10 -235 0
-11 -236 0
-12 -237 0
-13 -238 0
-14 -239 0
-15 -240 0
-16 -241 0
-17 -242 0
-18 -243 0
-10 -172 0
-11 -173 0
-12 -174 0
-13 -175 0
-14 -176 0
-15 -177 0
-16 -178 0
-17 -179 0
-18 -180 0
-10 -46 0
-11 -47 0
-12 -48 0
-13 -49 0
-14 -50 0
-15 -51 0
-16 -52 0
-17 -53 0
-18 -54 0
-10 -100 0
-11 -101 0
-12 -102 0
-13 -103 0
-14 -104 0
-15 -105 0
-16 -106 0
-17 -107 0
-18 -108 0
-10 -64 0
-11 -65 0
-12 -66 0
-13 -67 0
-14 -68 0
-15 -69 0
-16 -70 0
-17 -71 0
-18 -72 0
-10 -145 0
-11 -146 0
-12 -147 0
-13 -148 0
-14 -149 0
-15 -150 0
-16 -151 0
-17 -152 0
-18 -153 0
-10 -127 0
-11 -128 0
-12 -129 0
-13 -130 0
-14 -131 0
-15 -132 0
-16 -133 0
-17 -134 0
-18 -135 0
-10 -208 0
-11 -209 0
-12 -210 0
-13 -211 0
-14 -212 0
-15 -213 0
-16 -214 0
-17 -215 0
-18 -216 0
-10 -262 0
-11 -263 0
-12 -264 0
-13 -265 0
-14 -266 0
-15 -267 0
-16 -268 0
-17 -269 0
-18 -270 0
-10 -37 0
-11 -38 0
-12 -39 0
-13 -40 0
-14 -41 0
-15 -42 0
-16 -43 0
-17 -44 0
-18 -45 0
-10 -82 0
-11 -83 0
-12 -84 0
-13 -85 0
-14 -86 0
-15 -87 0
-16 -88 0
-17 -89 0
-18 -90 0
-10 -55 0
-11 -56 0
-12 -57 0
-13 -58 0
-14 -59 0
-15 -60 0
-16 -61 0
-17 -62 0
-18 -63 0
-10 -28 0
-11 -29 0
-12 -30 0
-13 -31 0
-14 -32 0
-15 -33 0
-16 -34 0
-17 -35 0
-18 -36 0
-10 -163 0
-11 -164 0
-12 -165 0
-13 -166 0
-14 -167 0
-15 -168 0
-16 -169 0
-17 -170 0
-18 -171 0
-19 -235 0
-20 -236 0
-21 -237 0
-22 -238 0
-23 -239 0
-24 -240 0
-25 -241 0
-26 -242 0
-27 -243 0
-19 -46 0
-20 -47 0
-21 -48 0
-22 -49 0
-23 -50 0
-24 -51 0
-25 -52 0
-26 -53 0
-27 -54 0
-19 -100 0
-20 -101 0
-21 -102 0
-22 -103 0
-23 -104 0
-24 -105 0
-25 -106 0
-26 -107 0
-27 -108 0
-19 -127 0
-20 -128 0
-21 -129 0
-22 -130 0
-23 -131 0
-24 -132 0
-25 -133 0
-26 -134 0
-27 -135 0
-19 -262 0
-20 -263 0
-21 -264 0
-22 -265 0
-23 -266 0
-24 -267 0
-25 -268 0
-26 -269 0
-27 -270 0
-19 -109 0
-20 -110 0
-21 -111 0
-22 -112 0
-23 -113 0
-24 -114 0
-25 -115 0
-26 -116 0
-27 -117 0
-19 -136 0
-20 -137 0
-21 -138 0
-22 -139 0
-23 -140 0
-24 -141 0
-25 -142 0
-26 -143 0
-27 -144 0
-19 -217 0
-20 -218 0
-21 -219 0
-22 -220 0
-23 -221 0
-24 -222 0
-25 -223 0
-26 -224 0
-27 -225 0
-19 -181 0
-20 -182 0
-21 -183 0
-22 -184 0
-23 -185 0
-24 -186 0
-25 -187 0
-26 -188 0
-27 -189 0
-19 -55 0
-20 -56 0
-21 -57 0
-22 -58 0
-23 -59 0
-24 -60 0
-25 -61 0
-26 -62 0
-27 -63 0
-19 -199 0
-20 -200 0
-21 -201 0
-22 -202 0
-23 -203 0
-24 -204 0
-25 -205 0
-26 -206 0
-27 -207 0
-19 -154 0
-20 -155 0
-21 -156 0
-22 -157 0
-23 -158 0
-24 -159 0
-25 -160 0
-26 -161 0
-27 -162 0
-19 -226 0
-20 -227 0
-21 -228 0
-22 -229 0
-23 -230 0
-24 -231 0
-25 -232 0
-26 -233 0
-27 -234 0
-19 -91 0
-20 -92 0
-21 -93 0
-22 -94 0
-23 -95 0
-24 -96 0
-25 -97 0
-26 -98 0
-27 -99 0
-28 -235 0
-29 -236 0
-30 -237 0
-31 -238 0
-32 -239 0
-33 -240 0
-34 -241 0
-35 -242 0
-36 -243 0
-28 -172 0
-29 -173 0
-30 -174 0
-31 -175 0
-32 -176 0
-33 -177 0
-34 -178 0
-35 -179 0
-36 -180 0
-28 -118 0
-29 -119 0
-30 -120 0
-31 -121 0
-32 -122 0
-33 -123 0
-34 -124 0
-35 -125 0
-36 -126 0
-28 -100 0
-29 -101 0
-30 -102 0
-31 -103 0
-32 -104 0
-33 -105 0
-34 -106 0
-35 -107 0
-36 -108 0
-28 -208 0
-29 -209 0
-30 -210 0
-31 -211 0
-32 -212 0
-33 -213 0
-34 -214 0
-35 -215 0
-36 -216 0
-28 -109 0
-29 -110 0
-30 -111 0
-31 -112 0
-32 -113 0
-33 -114 0
-34 -115 0
-35 -116 0
-36 -117 0
-28 -73 0
-29 -74 0
-30 -75 0
-31 -76 0
-32 -77 0
-33 -78 0
-34 -79 0
-35 -80 0
-36 -81 0
-28 -244 0
-29 -245 0
-30 -246 0
-31 -247 0
-32 -248 0
-33 -249 0
-34 -250 0
-35 -251 0
-36 -252 0
-28 -253 0
-29 -254 0
-30 -255 0
-31 -256 0
-32 -257 0
-33 -258 0
-34 -259 0
-35 -260 0
-36 -261 0
-28 -37 0
-29 -38 0
-30 -39 0
-31 -40 0
-32 -41 0
-33 -42 0
-34 -43 0
-35 -44 0
-36 -45 0
-28 -82 0
-29 -83 0
-30 -84 0
-31 -85 0
-32 -86 0
-33 -87 0
-34 -88 0
-35 -89 0
-36 -90 0
-28 -190 0
-29 -191 0
-30 -192 0
-31 -193 0
-32 -194 0
-33 -195 0
-34 -196 0
-35 -197 0
-36 -198 0
-28 -163 0
-29 -164 0
-30 -165 0
-31 -166 0
-32 -167 0
-33 -168 0
-34 -169 0
-35 -170 0
-36 -171 0
-37 -235 0
-38 -236 0
-39 -237 0
-40 -238 0
-41 -239 0
-42 -240 0
-43 -241 0
-44 -242 0
-45 -243 0
-37 -172 0
-38 -173 0
-39 -174 0
-40 -175 0
-41 -176 0
-42 -177 0
-43 -178 0
-44 -179 0
-45 -180 0
-37 -118 0
-38 -119 0
-39 -120 0
-40 -121 0
-41 -122 0
-42 -123 0
-43 -124 0
-44 -125 0
-45 -126 0
-37 -46 0
-38 -47 0
-39 -48 0
-40 -49 0
-41 -50 0
-42 -51 0
-43 -52 0
-44 -53 0
-45 -54 0
-37 -100 0
-38 -101 0
-39 -102 0
-40 -103 0
-41 -104 0
-42 -105 0
-43 -106 0
-44 -107 0
-45 -108 0
-37 -64 0
-38 -65 0
-39 -66 0
-40 -67 0
-41 -68 0
-42 -69 0
-43 -70 0
-44 -71 0
-45 -72 0
-37 -145 0
-38 -146 0
-39 -147 0
-40 -148 0
-41 -149 0
-42 -150 0
-43 -151 0
-44 -152 0
-45 -153 0
-37 -208 0
-38 -209 0
-39 -210 0
-40 -211 0
-41 -212 0
-42 -213 0
-43 -214 0
-44 -215 0
-45 -216 0
-37 -262 0
-38 -263 0
-39 -264 0
-40 -265 0
-41 -266 0
-42 -267 0
-43 -268 0
-44 -269 0
-45 -270 0
-37 -73 0
-38 -74 0
-39 -75 0
-40 -76 0
-41 -77 0
-42 -78 0
-43 -79 0
-44 -80 0
-45 -81 0
-37 -82 0
-38 -83 0
-39 -84 0
-40 -85 0
-41 -86 0
-42 -87 0
-43 -88 0
-44 -89 0
-45 -90 0
-37 -190 0
-38 -191 0
-39 -192 0
-40 -193 0
-41 -194 0
-42 -195 0
-43 -196 0
-44 -197 0
-45 -198 0
-37 -163 0
-38 -164 0
-39 -165 0
-40 -166 0
-41 -167 0
-42 -168 0
-43 -169 0
-44 -170 0
-45 -171 0
-46 -235 0
-47 -236 0
-48 -237 0
-49 -238 0
-50 -239 0
-51 -240 0
-52 -241 0
-53 -242 0
-54 -243 0
-46 -172 0
-47 -173 0
-48 -174 0
-49 -175 0
-50 -176 0
-51 -177 0
-52 -178 0
-53 -179 0
-54 -180 0
-46 -118 0
-47 -119 0
-48 -120 0
-49 -121 0
-50 -122 0
-51 -123 0
-52 -124 0
-53 -125 0
-54 -126 0
-46 -100 0
-47 -101 0
-48 -102 0
-49 -103 0
-50 -104 0
-51 -105 0
-52 -106 0
-53 -107 0
-54 -108 0
-46 -262 0
-47 -263 0
-48 -264 0
-49 -265 0
-50 -266 0
-51 -267 0
-52 -268 0
-53 -269 0
-54 -270 0
-46 -55 0
-47 -56 0
-48 -57 0
-49 -58 0
-50 -59 0
-51 -60 0
-52 -61 0
-53 -62 0
-54 -63 0
-46 -154 0
-47 -155 0
-48 -156 0
-49 -157 0
-50 -158 0
-51 -159 0
-52 -160 0
-53 -161 0
-54 -162 0
-46 -145 0
-47 -146 0
-48 -147 0
-49 -148 0
-50 -149 0
-51 -150 0
-52 -151 0
-53 -152 0
-54 -153 0
-46 -127 0
-47 -128 0
-48 -129 0
-49 -130 0
-50 -131 0
-51 -132 0
-52 -133 0
-53 -134 0
-54 -135 0
-46 -136 0
-47 -137 0
-48 -138 0
-49 -139 0
-50 -140 0
-51 -141 0
-52 -142 0
-53 -143 0
-54 -144 0
-46 -199 0
-47 -200 0
-48 -201 0
-49 -202 0
-50 -203 0
-51 -204 0
-52 -205 0
-53 -206 0
-54 -207 0
-46 -226 0
-47 -227 0
-48 -228 0
-49 -229 0
-50 -230 0
-51 -231 0
-52 -232 0
-53 -233 0
-54 -234 0
-55 -235 0
-56 -236 0
-57 -237 0
-58 -238 0
-59 -239 0
-60 -240 0
-61 -241 0
-62 -242 0
-63 -243 0
-55 -100 0
-56 -101 0
-57 -102 0
-58 -103 0
-59 -104 0
-60 -105 0
-61 -106 0
-62 -107 0
-63 -108 0
-55 -64 0
-56 -65 0
-57 -66 0
-58 -67 0
-59 -68 0
-60 -69 0
-61 -70 0
-62 -71 0
-63 -72 0
-55 -145 0
-56 -146 0
-57 -147 0
-58 -148 0
-59 -149 0
-60 -150 0
-61 -151 0
-62 -152 0
-63 -153 0
-55 -127 0
-56 -128 0
-57 -129 0
-58 -130 0
-59 -131 0
-60 -132 0
-61 -133 0
-62 -134 0
-63 -135 0
-55 -262 0
-56 -263 0
-57 -264 0
-58 -265 0
-59 -266 0
-60 -267 0
-61 -268 0
-62 -269 0
-63 -270 0
-55 -136 0
-56 -137 0
-57 -138 0
-58 -139 0
-59 -140 0
-60 -141 0
-61 -142 0
-62 -143 0
-63 -144 0
-55 -181 0
-56 -182 0
-57 -183 0
-58 -184 0
-59 -185 0
-60 -186 0
-61 -187 0
-62 -188 0
-63 -189 0
-55 -199 0
-56 -200 0
-57 -201 0
-58 -202 0
-59 -203 0
-60 -204 0
-61 -205 0
-62 -206 0
-63 -207 0
-55 -154 0
-56 -155 0
-57 -156 0
-58 -157 0
-59 -158 0
-60 -159 0
-61 -160 0
-62 -161 0
-63 -162 0
-55 -91 0
-56 -92 0
-57 -93 0
-58 -94 0
-59 -95 0
-60 -96 0
-61 -97 0
-62 -98 0
-63 -99 0
-55 -226 0
-56 -227 0
-57 -228 0
-58 -229 0
-59 -230 0
-60 -231 0
-61 -232 0
-62 -233 0
-63 -234 0
-64 -145 0
-65 -146 0
-66 -147 0
-67 -148 0
-68 -149 0
-69 -150 0
-70 -151 0
-71 -152 0
-72 -153 0
-64 -127 0
-65 -128 0
-66 -129 0
-67 -130 0
-68 -131 0
-69 -132 0
-70 -133 0
-71 -134 0
-72 -135 0
-64 -208 0
-65 -209 0
-66 -210 0
-67 -211 0
-68 -212 0
-69 -213 0
-70 -214 0
-71 -215 0
-72 -216 0
-64 -253 0
-65 -254 0
-66 -255 0
-67 -256 0
-68 -257 0
-69 -258 0
-70 -259 0
-71 -260 0
-72 -261 0
-64 -91 0
-65 -92 0
-66 -93 0
-67 -94 0
-68 -95 0
-69 -96 0
-70 -97 0
-71 -98 0
-72 -99 0
-64 -163 0
-65 -164 0
-66 -165 0
-67 -166 0
-68 -167 0
-69 -168 0
-70 -169 0
-71 -170 0
-72 -171 0
-64 -262 0
-65 -263 0
-66 -264 0
-67 -265 0
-68 -266 0
-69 -267 0
-70 -268 0
-71 -269 0
-72 -270 0
-64 -244 0
-65 -245 0
-66 -246 0
-67 -247 0
-68 -248 0
-69 -249 0
-70 -250 0
-71 -251 0
-72 -252 0
-64 -181 0
-65 -182 0
-66 -183 0
-67 -184 0
-68 -185 0
-69 -186 0
-70 -187 0
-71 -188 0
-72 -189 0
-64 -82 0
-65 -83 0
-66 -84 0
-67 -85 0
-68 -86 0
-69 -87 0
-70 -88 0
-71 -89 0
-72 -90 0
-64 -199 0
-65 -200 0
-66 -201 0
-67 -202 0
-68 -203 0
-69 -204 0
-70 -205 0
-71 -206 0
-72 -207 0
-64 -190 0
-65 -191 0
-66 -192 0
-67 -193 0
-68 -194 0
-69 -195 0
-70 -196 0
-71 -197 0
-72 -198 0
-73 -235 0
-74 -236 0
-75 -237 0
-76 -238 0
-77 -239 0
-78 -240 0
-79 -241 0
-80 -242 0
-81 -243 0
-73 -172 0
-74 -173 0
-75 -174 0
-76 -175 0
-77 -176 0
-78 -177 0
-79 -178 0
-80 -179 0
-81 -180 0
-73 -118 0
-74 -119 0
-75 -120 0
-76 -121 0
-77 -122 0
-78 -123 0
-79 -124 0
-80 -125 0
-81 -126 0
-73 -109 0
-74 -110 0
-75 -111 0
-76 -112 0
-77 -113 0
-78 -114 0
-79 -115 0
-80 -116 0
-81 -117 0
-73 -244 0
-74 -245 0
-75 -246 0
-76 -247 0
-77 -248 0
-78 -249 0
-79 -250 0
-80 -251 0
-81 -252 0
-73 -190 0
-74 -191 0
-75 -192 0
-76 -193 0
-77 -194 0
-78 -195 0
-79 -196 0
-80 -197 0
-81 -198 0
-73 -136 0
-74 -137 0
-75 -138 0
-76 -139 0
-77 -140 0
-78 -141 0
-79 -142 0
-80 -143 0
-81 -144 0
-73 -217 0
-74 -218 0
-75 -219 0
-76 -220 0
-77 -221 0
-78 -222 0
-79 -223 0
-80 -224 0
-81 -225 0
-73 -181 0
-74 -182 0
-75 -183 0
-76 -184 0
-77 -185 0
-78 -186 0
-79 -187 0
-80 -188 0
-81 -189 0
-73 -253 0
-74 -254 0
-75 -255 0
-76 -256 0
-77 -257 0
-78 -258 0
-79 -259 0
-80 -260 0
-81 -261 0
-73 -82 0
-74 -83 0
-75 -84 0
-76 -85 0
-77 -86 0
-78 -87 0
-79 -88 0
-80 -89 0
-81 -90 0
-73 -163 0
-74 -164 0
-75 -165 0
-76 -166 0
-77 -167 0
-78 -168 0
-79 -169 0
-80 -170 0
-81 -171 0
-82 -172 0
-83 -173 0
-84 -174 0
-85 -175 0
-86 -176 0
-87 -177 0
-88 -178 0
-89 -179 0
-90 -180 0
-82 -118 0
-83 -119 0
-84 -120 0
-85 -121 0
-86 -122 0
-87 -123 0
-88 -124 0
-89 -125 0
-90 -126 0
-82 -100 0
-83 -101 0
-84 -102 0
-85 -103 0
-86 -104 0
-87 -105 0
-88 -106 0
-89 -107 0
-90 -108 0
-82 -145 0
-83 -146 0
-84 -147 0
-85 -148 0
-86 -149 0
-87 -150 0
-88 -151 0
-89 -152 0
-90 -153 0
-82 -208 0
-83 -209 0
-84 -210 0
-85 -211 0
-86 -212 0
-87 -213 0
-88 -214 0
-89 -215 0
-90 -216 0
-82 -244 0
-83 -245 0
-84 -246 0
-85 -247 0
-86 -248 0
-87 -249 0
-88 -250 0
-89 -251 0
-90 -252 0
-82 -253 0
-83 -254 0
-84 -255 0
-85 -256 0
-86 -257 0
-87 -258 0
-88 -259 0
-89 -260 0
-90 -261 0
-82 -190 0
-83 -191 0
-84 -192 0
-85 -193 0
-86 -194 0
-87 -195 0
-88 -196 0
-89 -197 0
-90 -198 0
-82 -163 0
-83 -164 0
-84 -165 0
-85 -166 0
-86 -167 0
-87 -168 0
-88 -169 0
-89 -170 0
-90 -171 0
-91 -145 0
-92 -146 0
-93 -147 0
-94 -148 0
-95 -149 0
-96 -150 0
-97 -151 0
-98 -152 0
-99 -153 0
-91 -127 0
-92 -128 0
-93 -129 0
-94 -130 0
-95 -131 0
-96 -132 0
-97 -133 0
-98 -134 0
-99 -135 0
-91 -208 0
-92 -209 0
-93 -210 0
-94 -211 0
-95 -212 0
-96 -213 0
-97 -214 0
-98 -215 0
-99 -216 0
-91 -262 0
-92 -263 0
-93 -264 0
-94 -265 0
-95 -266 0
-96 -267 0
-97 -268 0
-98 -269 0
-99 -270 0
-91 -244 0
-92 -245 0
-93 -246 0
-94 -247 0
-95 -248 0
-96 -249 0
-97 -250 0
-98 -251 0
-99 -252 0
-91 -217 0
-92 -218 0
-93 -219 0
-94 -220 0
-95 -221 0
-96 -222 0
-97 -223 0
-98 -224 0
-99 -225 0
-91 -181 0
-92 -182 0
-93 -183 0
-94 -184 0
-95 -185 0
-96 -186 0
-97 -187 0
-98 -188 0
-99 -189 0
-91 -253 0
-92 -254 0
-93 -255 0
-94 -256 0
-95 -257 0
-96 -258 0
-97 -259 0
-98 -260 0
-99 -261 0
-91 -199 0
-92 -200 0
-93 -201 0
-94 -202 0
-95 -203 0
-96 -204 0
-97 -205 0
-98 -206 0
-99 -207 0
-91 -190 0
-92 -191 0
-93 -192 0
-94 -193 0
-95 -194 0
-96 -195 0
-97 -196 0
-98 -197 0
-99 -198 0
-91 -226 0
-92 -227 0
-93 -228 0
-94 -229 0
-95 -230 0
-96 -231 0
-97 -232 0
-98 -233 0
-99 -234 0
-91 -163 0
-92 -164 0
-93 -165 0
-94 -166 0
-95 -167 0
-96 -168 0
-97 -169 0
-98 -170 0
-99 -171 0
-100 -235 0
-101 -236 0
-102 -237 0
-103 -238 0
-104 -239 0
-105 -240 0
-106 -241 0
-107 -242 0
-108 -243 0
-100 -172 0
-101 -173 0
-102 -174 0
-103 -175 0
-104 -176 0
-105 -177 0
-106 -178 0
-107 -179 0
-108 -180 0
-100 -118 0
-101 -119 0
-102 -120 0
-103 -121 0
-104 -122 0
-105 -123 0
-106 -124 0
-107 -125 0
-108 -126 0
-100 -262 0
-101 -263 0
-102 -264 0
-103 -265 0
-104 -266 0
-105 -267 0
-106 -268 0
-107 -269 0
-108 -270 0
-100 -145 0
-101 -146 0
-102 -147 0
-103 -148 0
-104 -149 0
-105 -150 0
-106 -151 0
-107 -152 0
-108 -153 0
-100 -127 0
-101 -128 0
-102 -129 0
-103 -130 0
-104 -131 0
-105 -132 0
-106 -133 0
-107 -134 0
-108 -135 0
-100 -208 0
-101 -209 0
-102 -210 0
-103 -211 0
-104 -212 0
-105 -213 0
-106 -214 0
-107 -215 0
-108 -216 0
-100 -154 0
-101 -155 0
-102 -156 0
-103 -157 0
-104 -158 0
-105 -159 0
-106 -160 0
-107 -161 0
-108 -162 0
-109 -235 0
-110 -236 0
-111 -237 0
-112 -238 0
-113 -239 0
-114 -240 0
-115 -241 0
-116 -242 0
-117 -243 0
-109 -172 0
-110 -173 0
-111 -174 0
-112 -175 0
-113 -176 0
-114 -177 0
-115 -178 0
-116 -179 0
-117 -180 0
-109 -118 0
-110 -119 0
-111 -120 0
-112 -121 0
-113 -122 0
-114 -123 0
-115 -124 0
-116 -125 0
-117 -126 0
-109 -244 0
-110 -245 0
-111 -246 0
-112 -247 0
-113 -248 0
-114 -249 0
-115 -250 0
-116 -251 0
-117 -252 0
-109 -136 0
-110 -137 0
-111 -138 0
-112 -139 0
-113 -140 0
-114 -141 0
-115 -142 0
-116 -143 0
-117 -144 0
-109 -217 0
-110 -218 0
-111 -219 0
-112 -220 0
-113 -221 0
-114 -222 0
-115 -223 0
-116 -224 0
-117 -225 0
-109 -181 0
-110 -182 0
-111 -183 0
-112 -184 0
-113 -185 0
-114 -186 0
-115 -187 0
-116 -188 0
-117 -189 0
-109 -253 0
-110 -254 0
-111 -255 0
-112 -256 0
-113 -257 0
-114 -258 0
-115 -259 0
-116 -260 0
-117 -261 0
-109 -190 0
-110 -191 0
-111 -192 0
-112 -193 0
-113 -194 0
-114 -195 0
-115 -196 0
-116 -197 0
-117 -198 0
-109 -154 0
-110 -155 0
-111 -156 0
-112 -157 0
-113 -158 0
-114 -159 0
-115 -160 0
-116 -161 0
-117 -162 0
-109 -226 0
-110 -227 0
-111 -228 0
-112 -229 0
-113 -230 0
-114 -231 0
-115 -232 0
-116 -233 0
-117 -234 0
-118 -235 0
-119 -236 0
-120 -237 0
-121 -238 0
-122 -239 0
-123 -240 0
-124 -241 0
-125 -242 0
-126 -243 0
-118 -172 0
-119 -173 0
-120 -174 0
-121 -175 0
-122 -176 0
-123 -177 0
-124 -178 0
-125 -179 0
-126 -180 0
-118 -244 0
-119 -245 0
-120 -246 0
-121 -247 0
-122 -248 0
-123 -249 0
-124 -250 0
-125 -251 0
-126 -252 0
-118 -136 0
-119 -137 0
-120 -138 0
-121 -139 0
-122 -140 0
-123 -141 0
-124 -142 0
-125 -143 0
-126 -144 0
-118 -217 0
-119 -218 0
-120 -219 0
-121 -220 0
-122 -221 0
-123 -222 0
-124 -223 0
-125 -224 0
-126 -225 0
-118 -190 0
-119 -191 0
-120 -192 0
-121 -193 0
-122 -194 0
-123 -195 0
-124 -196 0
-125 -197 0
-126 -198 0
-118 -154 0
-119 -155 0
-120 -156 0
-121 -157 0
-122 -158 0
-123 -159 0
-124 -160 0
-125 -161 0
-126 -162 0
-127 -145 0
-128 -146 0
-129 -147 0
-130 -148 0
-131 -149 0
-132 -150 0
-133 -151 0
-134 -152 0
-135 -153 0
-127 -262 0
-128 -263 0
-129 -264 0
-130 -265 0
-131 -266 0
-132 -267 0
-133 -268 0
-134 -269 0
-135 -270 0
-127 -199 0
-128 -200 0
-129 -201 0
-130 -202 0
-131 -203 0
-132 -204 0
-133 -205 0
-134 -206 0
-135 -207 0
-127 -208 0
-128 -209 0
-129 -210 0
-130 -211 0
-131 -212 0
-132 -213 0
-133 -214 0
-134 -215 0
-135 -216 0
-127 -181 0
-128 -182 0
-129 -183 0
-130 -184 0
-131 -185 0
-132 -186 0
-133 -187 0
-134 -188 0
-135 -189 0
-127 -253 0
-128 -254 0
-129 -255 0
-130 -256 0
-131 -257 0
-132 -258 0
-133 -259 0
-134 -260 0
-135 -261 0
-127 -226 0
-128 -227 0
-129 -228 0
-130 -229 0
-131 -230 0
-132 -231 0
-133 -232 0
-134 -233 0
-135 -234 0
-127 -163 0
-128 -164 0
-129 -165 0
-130 -166 0
-131 -167 0
-132 -168 0
-133 -169 0
-134 -170 0
-135 -171 0
-136 -235 0
-137 -236 0
-138 -237 0
-139 -238 0
-140 -239 0
-141 -240 0
-142 -241 0
-143 -242 0
-144 -243 0
-136 -244 0
-137 -245 0
-138 -246 0
-139 -247 0
-140 -248 0
-141 -249 0
-142 -250 0
-143 -251 0
-144 -252 0
-136 -217 0
-137 -218 0
-138 -219 0
-139 -220 0
-140 -221 0
-141 -222 0
-142 -223 0
-143 -224 0
-144 -225 0
-136 -154 0
-137 -155 0
-138 -156 0
-139 -157 0
-140 -158 0
-141 -159 0
-142 -160 0
-143 -161 0
-144 -162 0
-136 -226 0
-137 -227 0
-138 -228 0
-139 -229 0
-140 -230 0
-141 -231 0
-142 -232 0
-143 -233 0
-144 -234 0
-136 -181 0
-137 -182 0
-138 -183 0
-139 -184 0
-140 -185 0
-141 -186 0
-142 -187 0
-143 -188 0
-144 -189 0
-136 -199 0
-137 -200 0
-138 -201 0
-139 -202 0
-140 -203 0
-141 -204 0
-142 -205 0
-143 -206 0
-144 -207 0
-145 -208 0
-146 -209 0
-147 -210 0
-148 -211 0
-149 -212 0
-150 -213 0
-151 -214 0
-152 -215 0
-153 -216 0
-145 -262 0
-146 -263 0
-147 -264 0
-148 -265 0
-149 -266 0
-150 -267 0
-151 -268 0
-152 -269 0
-153 -270 0
-145 -253 0
-146 -254 0
-147 -255 0
-148 -256 0
-149 -257 0
-150 -258 0
-151 -259 0
-152 -260 0
-153 -261 0
-145 -199 0
-146 -200 0
-147 -201 0
-148 -202 0
-149 -203 0
-150 -204 0
-151 -205 0
-152 -206 0
-153 -207 0
-145 -163 0
-146 -164 0
-147 -165 0
-148 -166 0
-149 -167 0
-150 -168 0
-151 -169 0
-152 -170 0
-153 -171 0
-154 -235 0
-155 -236 0
-156 -237 0
-157 -238 0
-158 -239 0
-159 -240 0
-160 -241 0
-161 -242 0
-162 -243 0
-154 -172 0
-155 -173 0
-156 -174 0
-157 -175 0
-158 -176 0
-159 -177 0
-160 -178 0
-161 -179 0
-162 -180 0
-154 -262 0
-155 -263 0
-156 -264 0
-157 -265 0
-158 -266 0
-159 -267 0
-160 -268 0
-161 -269 0
-162 -270 0
-154 -217 0
-155 -218 0
-156 -219 0
-157 -220 0
-158 -221 0
-159 -222 0
-160 -223 0
-161 -224 0
-162 -225 0
-154 -199 0
-155 -200 0
-156 -201 0
-157 -202 0
-158 -203 0
-159 -204 0
-160 -205 0
-161 -206 0
-162 -207 0
-154 -226 0
-155 -227 0
-156 -228 0
-157 -229 0
-158 -230 0
-159 -231 0
-160 -232 0
-161 -233 0
-162 -234 0
-163 -208 0
-164 -209 0
-165 -210 0
-166 -211 0
-167 -212 0
-168 -213 0
-169 -214 0
-170 -215 0
-171 -216 0
-163 -244 0
-164 -245 0
-165 -246 0
-166 -247 0
-167 -248 0
-168 -249 0
-169 -250 0
-170 -251 0
-171 -252 0
-163 -181 0
-164 -182 0
-165 -183 0
-166 -184 0
-167 -185 0
-168 -186 0
-169 -187 0
-170 -188 0
-171 -189 0
-163 -253 0
-164 -254 0
-165 -255 0
-166 -256 0
-167 -257 0
-168 -258 0
-169 -259 0
-170 -260 0
-171 -261 0
-163 -190 0
-164 -191 0
-165 -192 0
-166 -193 0
-167 -194 0
-168 -195 0
-169 -196 0
-170 -197 0
-171 -198 0
-172 -235 0
-173 -236 0
-174 -237 0
-175 -238 0
-176 -239 0
-177 -240 0
-178 -241 0
-179 -242 0
-180 -243 0
-172 -208 0
-173 -209 0
-174 -210 0
-175 -211 0
-176 -212 0
-177 -213 0
-178 -214 0
-179 -215 0
-180 -216 0
-172 -262 0
-173 -263 0
-174 -264 0
-175 -265 0
-176 -266 0
-177 -267 0
-178 -268 0
-179 -269 0
-180 -270 0
-172 -190 0
-173 -191 0
-174 -192 0
-175 -193 0
-176 -194 0
-177 -195 0
-178 -196 0
-179 -197 0
-180 -198 0
-181 -244 0
-182 -245 0
-183 -246 0
-184 -247 0
-185 -248 0
-186 -249 0
-187 -250 0
-188 -251 0
-189 -252 0
-181 -217 0
-182 -218 0
-183 -219 0
-184 -220 0
-185 -221 0
-186 -222 0
-187 -223 0
-188 -224 0
-189 -225 0
-181 -253 0
-182 -254 0
-183 -255 0
-184 -256 0
-185 -257 0
-186 -258 0
-187 -259 0
-188 -260 0
-189 -261 0
-181 -199 0
-182 -200 0
-183 -201 0
-184 -202 0
-185 -203 0
-186 -204 0
-187 -205 0
-188 -206 0
-189 -207 0
-181 -226 0
-182 -227 0
-183 -228 0
-184 -229 0
-185 -230 0
-186 -231 0
-187 -232 0
-188 -233 0
-189 -234 0
-181 -190 0
-182 -191 0
-183 -192 0
-184 -193 0
-185 -194 0
-186 -195 0
-187 -196 0
-188 -197 0
-189 -198 0
-190 -208 0
-191 -209 0
-192 -210 0
-193 -211 0
-194 -212 0
-195 -213 0
-196 -214 0
-197 -215 0
-198 -216 0
-190 -244 0
-191 -245 0
-192 -246 0
-193 -247 0
-194 -248 0
-195 -249 0
-196 -250 0
-197 -251 0
-198 -252 0
-190 -217 0
-191 -218 0
-192 -219 0
-193 -220 0
-194 -221 0
-195 -222 0
-196 -223 0
-197 -224 0
-198 -225 0
-190 -253 0
-191 -254 0
-192 -255 0
-193 -256 0
-194 -257 0
-195 -258 0
-196 -259 0
-197 -260 0
-198 -261 0
-199 -262 0
-200 -263 0
-201 -264 0
-202 -265 0
-203 -266 0
-204 -267 0
-205 -268 0
-206 -269 0
-207 -270 0
-199 -244 0
-200 -245 0
-201 -246 0
-202 -247 0
-203 -248 0
-204 -249 0
-205 -250 0
-206 -251 0
-207 -252 0
-199 -217 0
-200 -218 0
-201 -219 0
-202 -220 0
-203 -221 0
-204 -222 0
-205 -223 0
-206 -224 0
-207 -225 0
-199 -253 0
-200 -254 0
-201 -255 0
-202 -256 0
-203 -257 0
-204 -258 0
-205 -259 0
-206 -260 0
-207 -261 0
-199 -226 0
-200 -227 0
-201 -228 0
-202 -229 0
-203 -230 0
-204 -231 0
-205 -232 0
-206 -233 0
-207 -234 0
-208 -262 0
-209 -263 0
-210 -264 0
-211 -265 0
-212 -266 0
-213 -267 0
-214 -268 0
-215 -269 0
-216 -270 0
-208 -253 0
-209 -254 0
-210 -255 0
-211 -256 0
-212 -257 0
-213 -258 0
-214 -259 0
-215 -260 0
-216 -261 0
-217 -244 0
-218 -245 0
-219 -246 0
-220 -247 0
-221 -248 0
-222 -249 0
-223 -250 0
-224 -251 0
-225 -252 0
-217 -226 0
-218 -227 0
-219 -228 0
-220 -229 0
-221 -230 0
-222 -231 0
-223 -232 0
-224 -233 0
-225 -234 0
-217 -253 0
-218 -254 0
-219 -255 0
-220 -256 0
-221 -257 0
-222 -258 0
-223 -259 0
-224 -260 0
-225 -261 0
-226 -244 0
-227 -245 0
-228 -246 0
-229 -247 0
-230 -248 0
-231 -249 0
-232 -250 0
-233 -251 0
-234 -252 0
-226 -253 0
-227 -254 0
-228 -255 0
-229 -256 0
-230 -257 0
-231 -258 0
-232 -259 0
-233 -260 0
-234 -261 0
-235 -262 0
-236 -263 0
-237 -264 0
-238 -265 0
-239 -266 0
-240 -267 0
-241 -268 0
-242 -269 0
-243 -270 0
-244 -253 0
-245 -254 0
-246 -255 0
-247 -256 0
-248 -257 0
-249 -258 0
-250 -259 0
-251 -260 0
-252 -261 0
1 2 3 4 5 6 7 8 9 0
-1 -2 0
-1 -3 0
-1 -4 0
-1 -5 0
-1 -6 0
-1 -7 0
-1 -8 0
-1 -9 0
-2 -3 0
-2 -4 0
-2 -5 0
-2 -6 0
-2 -7 0
-2 -8 0
-2 -9 0
-3 -4 0
-3 -5 0
-3 -6 0
-3 -7 0
-3 -8 0
-3 -9 0
-4 -5 0
-4 -6 0
-4 -7 0
-4 -8 0
-4 -9 0
-5 -6 0
-5 -7 0
-5 -8 0
-5 -9 0
-6 -7 0
-6 -8 0
-6 -9 0
-7 -8 0
-7 -9 0
-8 -9 0
10 11 12 13 14 15 16 17 18 0
-10 -11 0
-10 -12 0
-10 -13 0
-10 -14 0
-10 -15 0
-10 -16 0
-10 -17 0
-10 -18 0
-11 -12 0
-11 -13 0
-11 -14 0
-11 -15 0
-11 -16 0
-11 -17 0
-11 -18 0
-12 -13 0
-12 -14 0
-12 -15 0
-12 -16 0
-12 -17 0
-12 -18 0
-13 -14 0
-13 -15 0
-13 -16 0
-13 -17 0
-13 -18 0
-14 -15 0
-14 -16 0
-14 -17 0
-14 -18 0
-15 -16 0
-15 -17 0
-15 -18 0
-16 -17 0
-16 -18 0
-17 -18 0
19 20 21 22 23 24 25 26 27 0
-19 -20 0
-19 -21 0
-19 -22 0
-19 -23 0
-19 -24 0
-19 -25 0
-19 -26 0
-19 -27 0
-20 -21 0
-20 -22 0
-20 -23 0
-20 -24 0
-20 -25 0
-20 -26 0
-20 -27 0
-21 -22 0
-21 -23 0
-21 -24 0
-21 -25 0
-21 -26 0
-21 -27 0
-22 -23 0
-22 -24 0
-22 -25 0
-22 -26 0
-22 -27 0
-23 -24 0
-23 -25 0
-23 -26 0
-23 -27 0
-24 -25 0
-24 -26 0
-24 -27 0
-25 -26 0
-25 -27 0
-26 -27 0
28 29 30 31 32 33 34 35 36 0
-28 -29 0
-28 -30 0
-28 -31 0
-28 -32 0
-28 -33 0
-28 -34 0
-28 -35 0
-28 -36 0
-29 -30 0
-29 -31 0
-29 -32 0
-29 -33 0
-29 -34 0
-29 -35 0
-29 -36 0
-30 -31 0
-30 -32 0
-30 -33 0
-30 -34 0
-30 -35 0
-30 -36 0
-31 -32 0
-31 -33 0
-31 -34 0
-31 -35 0
-31 -36 0
-32 -33 0
-32 -34 0
-32 -35 0
-32 -36 0
-33 -34 0
-33 -35 0
-33 -36 0
-34 -35 0
-34 -36 0
-35 -36 0
37 38 39 40 41 42 43 44 45 0
-37 -38 0
-37 -39 0
-37 -40 0
-37 -41 0
-37 -42 0
-37 -43 0
-37 -44 0
-37 -45 0
-38 -39 0
-38 -40 0
-38 -41 0
-38 -42 0
-38 -43 0
-38 -44 0
-38 -45 0
-39 -40 0
-39 -41 0
-39 -42 0
-39 -43 0
-39 -44 0
-39 -45 0
-40 -41 0
-40 -42 0
-40 -43 0
-40 -44 0
-40 -45 0
-41 -42 0
-41 -43 0
-41 -44 0
-41 -45 0
-42 -43 0
-42 -44 0
-42 -45 0
-43 -44 0
-43 -45 0
-44 -45 0
46 47 48 49 50 51 52 53 54 0
-46 -47 0
-46 -48 0
-46 -49 0
-46 -50 0
-46 -51 0
-46 -52 0
-46 -53 0
-46 -54 0
-47 -48 0
-47 -49 0
-47 -50 0
-47 -51 0
-47 -52 0
-47 -53 0
-47 -54 0
-48 -49 0
-48 -50 0
-48 -51 0
-48 -52 0
-48 -53 0
-48 -54 0
-49 -50 0
-49 -51 0
-49 -52 0
-49 -53 0
-49 -54 0
-50 -51 0
-50 -52 0
-50 -53 0
-50 -54 0
-51 -52 0
-51 -53 0
-51 -54 0
-52 -53 0
-52 -54 0
-53 -54 0
55 56 57 58 59 60 61 62 63 0
-55 -56 0
-55 -57 0
-55 -58 0
-55 -59 0
-55 -60 0
-55 -61 0
-55 -62 0
-55 -63 0
-56 -57 0
-56 -58 0
-56 -59 0
-56 -60 0
-56 -61 0
-56 -62 0
-56 -63 0
-57 -58 0
-57 -59 0
-57 -60 0
-57 -61 0
-57 -62 0
-57 -63 0
-58 -59 0
-58 -60 0
-58 -61 0
-58 -62 0
-58 -63 0
-59 -60 0
-59 -61 0
-59 -62 0
-59 -63 0
-60 -61 0
-60 -62 0
-60 -63 0
-61 -62 0
-61 -63 0
-62 -63 0
64 65 66 67 68 69 70 71 72 0
-64 -65 0
-64 -66 0
-64 -67 0
-64 -68 0
-64 -69 0
-64 -70 0
-64 -71 0
-64 -72 0
-65 -66 0
-65 -67 0
-65 -68 0
-65 -69 0
-65 -70 0
-65 -71 0
-65 -72 0
-66 -67 0
-66 -68 0
-66 -69 0
-66 -70 0
-66 -71 0
-66 -72 0
-67 -68 0
-67 -69 0
-67 -70 0
-67 -71 0
-67 -72 0
-68 -69 0
-68 -70 0
-68 -71 0
-68 -72 0
-69 -70 0
-69 -71 0
-69 -72 0
-70 -71 0
-70 -72 0
-71 -72 0
73 74 75 76 77 78 79 80 81 0
-73 -74 0
-73 -75 0
-73 -76 0
-73 -77 0
-73 -78 0
-73 -79 0
-73 -80 0
-73 -81 0
-74 -75 0
-74 -76 0
-74 -77 0
-74 -78 0
-74 -79 0
-74 -80 0
-74 -81 0
-75 -76 0
-75 -77 0
-75 -78 0
-75 -79 0
-75 -80 0
-75 -81 0
-76 -77 0
-76 -78 0
-76 -79 0
-76 -80 0
-76 -81 0
-77 -78 0
-77 -79 0
-77 -80 0
-77 -81 0
-78 -79 0
-78 -80 0
-78 -81 0
-79 -80 0
-79 -81 0
-80 -81 0
82 83 84 85 86 87 88 89 90 0
-82 -83 0
-82 -84 0
-82 -85 0
-82 -86 0
-82 -87 0
-82 -88 0
-82 -89 0
-82 -90 0
-83 -84 0
-83 -85 0
-83 -86 0
-83 -87 0
-83 -88 0
-83 -89 0
-83 -90 0
-84 -85 0
-84 -86 0
-84 -87 0
-84 -88 0
-84 -89 0
-84 -90 0
-85 -86 0
-85 -87 0
-85 -88 0
-85 -89 0
-85 -90 0
-86 -87 0
-86 -88 0
-86 -89 0
-86 -90 0
-87 -88 0
-87 -89 0
-87 -90 0
-88 -89 0
-88 -90 0
-89 -90 0
91 92 93 94 95 96 97 98 99 0
-91 -92 0
-91 -93 0
-91 -94 0
-91 -95 0
-91 -96 0
-91 -97 0
-91 -98 0
-91 -99 0
-92 -93 0
-92 -94 0
-92 -95 0
-92 -96 0
-92 -97 0
-92 -98 0
-92 -99 0
-93 -94 0
-93 -95 0
-93 -96 0
-93 -97 0
-93 -98 0
-93 -99 0
-94 -95 0
-94 -96 0
-94 -97 0
-94 -98 0
-94 -99 0
-95 -96 0
-95 -97 0
-95 -98 0
-95 -99 0
-96 -97 0
-96 -98 0
-96 -99 0
-97 -98 0
-97 -99 0
-98 -99 0
100 101 102 103 104 105 106 107 108 0
-100 -101 0
-100 -102 0
-100 -103 0
-100 -104 0
-100 -105 0
-100 -106 0
-100 -107 0
-100 -108 0
-101 -102 0
-101 -103 0
-101 -104 0
-101 -105 0
-101 -106 0
-101 -107 0
-101 -108 0
-102 -103 0
-102 -104 0
-102 -105 0
-102 -106 0
-102 -107 0
-102 -108 0
-103 -104 0
-103 -105 0
-103 -106 0
-103 -107 0
-103 -108 0
-104 -105 0
-104 -106 0
-104 -107 0
-104 -108 0
-105 -106 0
-105 -107 0
-105 -108 0
-106 -107 0
-106 -108 0
-107 -108 0
109 110 111 112 113 114 115 116 117 0
-109 -110 0
-109 -111 0
-109 -112 0
-109 -113 0
-109 -114 0
-109 -115 0
-109 -116 0
-109 -117 0
-110 -111 0
-110 -112 0
-110 -113 0
-110 -114 0
-110 -115 0
-110 -116 0
-110 -117 0
-111 -112 0
-111 -113 0
-111 -114 0
-111 -115 0
-111 -116 0
-111 -117 0
-112 -113 0
-112 -114 0
-112 -115 0
-112 -116 0
-112 -117 0
-113 -114 0
-113 -115 0
-113 -116 0
-113 -117 0
-114 -115 0
-114 -116 0
-114 -117 0
-115 -116 0
-115 -117 0
-116 -117 0
118 119 120 121 122 123 124 125 126 0
-118 -119 0
-118 -120 0
-118 -121 0
-118 -122 0
-118 -123 0
-118 -124 0
-118 -125 0
-118 -126 0
-119 -120 0
-119 -121 0
-119 -122 0
-119 -123 0
-119 -124 0
-119 -125 0
-119 -126 0
-120 -121 0
-120 -122 0
-120 -123 0
-120 -124 0
-120 -125 0
-120 -126 0
-121 -122 0
-121 -123 0
-121 -124 0
-121 -125 0
-121 -126 0
-122 -123 0
-122 -124 0
-122 -125 0
-122 -126 0
-123 -124 0
-123 -125 0
-123 -126 0
-124 -125 0
-124 -126 0
-125 -126 0
127 128 129 130 131 132 133 134 135 0
-127 -128 0
-127 -129 0
-127 -130 0
-127 -131 0
-127 -132 0
-127 -133 0
-127 -134 0
-127 -135 0
-128 -129 0
-128 -130 0
-128 -131 0
-128 -132 0
-128 -133 0
-128 -134 0
-128 -135 0
-129 -130 0
-129 -131 0
-129 -132 0
-129 -133 0
-129 -134 0
-129 -135 0
-130 -131 0
-130 -132 0
-130 -133 0
-130 -134 0
-130 -135 0
-131 -132 0
-131 -133 0
-131 -134 0
-131 -135 0
-132 -133 0
-132 -134 0
-132 -135 0
-133 -134 0
-133 -135 0
-134 -135 0
136 137 138 139 140 141 142 143 144 0
-136 -137 0
-136 -138 0
-136 -139 0
-136 -140 0
-136 -141 0
-136 -142 0
-136 -143 0
-136 -144 0
-137 -138 0
-137 -139 0
-137 -140 0
-137 -141 0
-137 -142 0
-137 -143 0
-137 -144 0
-138 -139 0
-138 -140 0
-138 -141 0
-138 -142 0
-138 -143 0
-138 -144 0
-139 -140 0
-139 -141 0
-139 -142 0
-139 -143 0
-139 -144 0
-140 -141 0
-140 -142 0
-140 -143 0
-140 -144 0
-141 -142 0
-141 -143 0
-141 -144 0
-142 -143 0
-142 -144 0
-143 -144 0
145 146 147 148 149 150 151 152 153 0
-145 -146 0
-145 -147 0
-145 -148 0
-145 -149 0
-145 -150 0
-145 -151 0
-145 -152 0
-145 -153 0
-146 -147 0
-146 -148 0
-146 -149 0
-146 -150 0
-146 -151 0
-146 -152 0
-146 -153 0
-147 -148 0
-147 -149 0
-147 -150 0
-147 -151 0
-147 -152 0
-147 -153 0
-148 -149 0
-148 -150 0
-148 -151 0
-148 -152 0
-148 -153 0
-149 -150 0
-149 -151 0
-149 -152 0
-149 -153 0
-150 -151 0
-150 -152 0
-150 -153 0
-151 -152 0
-151 -153 0
-152 -153 0
154 155 156 157 158 159 160 161 162 0
-154 -155 0
-154 -156 0
-154 -157 0
-154 -158 0
-154 -159 0
-154 -160 0
-154 -161 0
-154 -162 0
-155 -156 0
-155 -157 0
-155 -158 0
-155 -159 0
-155 -160 0
-155 -161 0
-155 -162 0
-156 -157 0
-156 -158 0
-156 -159 0
-156 -160 0
-156 -161 0
-156 -162 0
-157 -158 0
-157 -159 0
-157 -160 0
-157 -161 0
-157 -162 0
-158 -159 0
-158 -160 0
-158 -161 0
-158 -162 0
-159 -160 0
-159 -161 0
-159 -162 0
-160 -161 0
-160 -162 0
-161 -162 0
163 164 165 166 167 168 169 170 171 0
-163 -164 0
-163 -165 0
-163 -166 0
-163 -167 0
-163 -168 0
-163 -169 0
-163 -170 0
-163 -171 0
-164 -165 0
-164 -166 0
-164 -167 0
-164 -168 0
-164 -169 0
-164 -170 0
-164 -171 0
-165 -166 0
-165 -167 0
-165 -168 0
-165 -169 0
-165 -170 0
-165 -171 0
-166 -167 0
-166 -168 0
-166 -169 0
-166 -170 0
-166 -171 0
-167 -168 0
-167 -169 0
-167 -170 0
-167 -171 0
-168 -169 0
-168 -170 0
-168 -171 0
-169 -170 0
-169 -171 0
-170 -171 0
172 173 174 175 176 177 178 179 180 0
-172 -173 0
-172 -174 0
-172 -175 0
-172 -176 0
-172 -177 0
-172 -178 0
-172 -179 0
-172 -180 0
-173 -174 0
-173 -175 0
-173 -176 0
-173 -177 0
-173 -178 0
-173 -179 0
-173 -180 0
-174 -175 0
-174 -176 0
-174 -177 0
-174 -178 0
-174 -179 0
-174 -180 0
-175 -176 0
-175 -177 0
-175 -178 0
-175 -179 0
-175 -180 0
-176 -177 0
-176 -178 0
-176 -179 0
-176 -180 0
-177 -178 0
-177 -179 0
-177 -180 0
-178 -179 0
-178 -180 0
-179 -180 0
181 182 183 184 185 186 187 188 189 0
-181 -182 0
-181 -183 0
-181 -184 0
-181 -185 0
-181 -186 0
-181 -187 0
-181 -188 0
-181 -189 0
-182 -183 0
-182 -184 0
-182 -185 0
-182 -186 0
-182 -187 0
-182 -188 0
-182 -189 0
-183 -184 0
-183 -185 0
-183 -186 0
-183 -187 0
-183 -188 0
-183 -189 0
-184 -185 0
-184 -186 0
-184 -187 0
-184 -188 0
-184 -189 0
-185 -186 0
-185 -187 0
-185 -188 0
-185 -189 0
-186 -187 0
-186 -188 0
-186 -189 0
-187 -188 0
-187 -189 0
-188 -189 0
190 191 192 193 194 195 196 197 198 0
-190 -191 0
-190 -192 0
-190 -193 0
-190 -194 0
-190 -195 0
-190 -196 0
-190 -197 0
-190 -198 0
-191 -192 0
-191 -193 0
-191 -194 0
-191 -195 0
-191 -196 0
-191 -197 0
-191 -198 0
-192 -193 0
-192 -194 0
-192 -195 0
-192 -196 0
-192 -197 0
-192 -198 0
-193 -194 0
-193 -195 0
-193 -196 0
-193 -197 0
-193 -198 0
-194 -195 0
-194 -196 0
-194 -197 0
-194 -198 0
-195 -196 0
-195 -197 0
-195 -198 0
-196 -197 0
-196 -198 0
-197 -198 0
199 200 201 202 203 204 205 206 207 0
-199 -200 0
-199 -201 0
-199 -202 0
-199 -203 0
-199 -204 0
-199 -205 0
-199 -206 0
-199 -207 0
-200 -201 0
-200 -202 0
-200 -203 0
-200 -204 0
-200 -205 0
-200 -206 0
-200 -207 0
-201 -202 0
-201 -203 0
-201 -204 0
-201 -205 0
-201 -206 0
-201 -207 0
-202 -203 0
-202 -204 0
-202 -205 0
-202 -206 0
-202 -207 0
-203 -204 0
-203 -205 0
-203 -206 0
-203 -207 0
-204 -205 0
-204 -206 0
-204 -207 0
-205 -206 0
-205 -207 0
-206 -207 0
208 209 210 211 212 213 214 215 216 0
-208 -209 0
-208 -210 0
-208 -211 0
-208 -212 0
-208 -213 0
-208 -214 0
-208 -215 0
-208 -216 0
-209 -210 0
-209 -211 0
-209 -212 0
-209 -213 0
-209 -214 0
-209 -215 0
-209 -216 0
-210 -211 0
-210 -212 0
-210 -213 0
-210 -214 0
-210 -215 0
-210 -216 0
-211 -212 0
-211 -213 0
-211 -214 0
-211 -215 0
-211 -216 0
-212 -213 0
-212 -214 0
-212 -215 0
-212 -216 0
-213 -214 0
-213 -215 0
-213 -216 0
-214 -215 0
-214 -216 0
-215 -216 0
217 218 219 220 221 222 223 224 225 0
-217 -218 0
-217 -219 0
-217 -220 0
-217 -221 0
-217 -222 0
-217 -223 0
-217 -224 0
-217 -225 0
-218 -219 0
-218 -220 0
-218 -221 0
-218 -222 0
-218 -223 0
-218 -224 0
-218 -225 0
-219 -220 0
-219 -221 0
-219 -222 0
-219 -223 0
-219 -224 0
-219 -225 0
-220 -221 0
-220 -222 0
-220 -223 0
-220 -224 0
-220 -225 0
-221 -222 0
-221 -223 0
-221 -224 0
-221 -225 0
-222 -223 0
-222 -224 0
-222 -225 0
-223 -224 0
-223 -225 0
-224 -225 0
226 227 228 229 230 231 232 233 234 0
-226 -227 0
-226 -228 0
-226 -229 0
-226 -230 0
-226 -231 0
-226 -232 0
-226 -233 0
-226 -234 0
-227 -228 0
-227 -229 0
-227 -230 0
-227 -231 0
-227 -232 0
-227 -233 0
-227 -234 0
-228 -229 0
-228 -230 0
-228 -231 0
-228 -232 0
-228 -233 0
-228 -234 0
-229 -230 0
-229 -231 0
-229 -232 0
-229 -233 0
-229 -234 0
-230 -231 0
-230 -232 0
-230 -233 0
-230 -234 0
-231 -232 0
-231 -233 0
-231 -234 0
-232 -233 0
-232 -234 0
-233 -234 0
235 236 237 238 239 240 241 242 243 0
-235 -236 0
-235 -237 0
-235 -238 0
-235 -239 0
-235 -240 0
-235 -241 0
-235 -242 0
-235 -243 0
-236 -237 0
-236 -238 0
-236 -239 0
-236 -240 0
-236 -241 0
-236 -242 0
-236 -243 0
-237 -238 0
-237 -239 0
-237 -240 0
-237 -241 0
-237 -242 0
-237 -243 0
-238 -239 0
-238 -240 0
-238 -241 0
-238 -242 0
-238 -243 0
-239 -240 0
-239 -241 0
-239 -242 0
-239 -243 0
-240 -241 0
-240 -242 0
-240 -243 0
-241 -242 0
-241 -243 0
-242 -243 0
244 245 246 247 248 249 250 251 252 0
-244 -245 0
-244 -246 0
-244 -247 0
-244 -248 0
-244 -249 0
-244 -250 0
-244 -251 0
-244 -252 0
-245 -246 0
-245 -247 0
-245 -248 0
-245 -249 0
-245 -250 0
-245 -251 0
-245 -252 0
-246 -247 0
-246 -248 0
-246 -249 0
-246 -250 0
-246 -251 0
-246 -252 0
-247 -248 0
-247 -249 0
-247 -250 0
-247 -251 0
-247 -252 0
-248 -249 0
-248 -250 0
-248 -251 0
-248 -252 0
-249 -250 0
-249 -251 0
-249 -252 0
-250 -251 0
-250 -252 0
-251 -252 0
253 254 255 256 257 258 259 260 261 0
-253 -254 0
-253 -255 0
-253 -256 0
-253 -257 0
-253 -258 0
-253 -259 0
-253 -260 0
-253 -261 0
-254 -255 0
-254 -256 0
-254 -257 0
-254 -258 0
-254 -259 0
-254 -260 0
-254 -261 0
-255 -256 0
-255 -257 0
-255 -258 0
-255 -259 0
-255 -260 0
-255 -261 0
-256 -257 0
-256 -258 0
-256 -259 0
-256 -260 0
-256 -261 0
-257 -258 0
-257 -259 0
-257 -260 0
-257 -261 0
-258 -259 0
-258 -260 0
-258 -261 0
-259 -260 0
-259 -261 0
-260 -261 0
262 263 264 265 266 267 268 269 270 0
-262 -263 0
-262 -264 0
-262 -265 0
-262 -266 0
-262 -267 0
-262 -268 0
-262 -269 0
-262 -270 0
-263 -264 0
-263 -265 0
-263 -266 0
-263 -267 0
-263 -268 0
-263 -269 0
-263 -270 0
-264 -265 0
-264 -266 0
-264 -267 0
-264 -268 0
-264 -269 0
-264 -270 0
-265 -266 0
-265 -267 0
-265 -268 0
-265 -269 0
-265 -270 0
-266 -267 0
-266 -268 0
-266 -269 0
-266 -270 0
-267 -268 0
-267 -269 0
-267 -270 0
-268 -269 0
-268 -270 0
-269 -270 0
